c File: flat50_3_0.col
c
c SOURCE: Joseph Culberson (joe@cs.ualberta.ca)
c DESCRIPTION: Quasi-random coloring problem
c              generated with flatness = 0
c                             probability = 0.139
c                             known coloring = 3
c                             random seed = 1676
c              Creation Date:  Tue Jun  9 12:15:08 1998
c Maximum degree = 8 Minimum degree = 0
c p edge 50 115
c cnf created by edge2cnf
p cnf 150 545
-1 -2 0
-1 -3 0
-2 -3 0
1 2 3 0
-4 -5 0
-4 -6 0
-5 -6 0
4 5 6 0
-7 -8 0
-7 -9 0
-8 -9 0
7 8 9 0
-10 -11 0
-10 -12 0
-11 -12 0
10 11 12 0
-13 -14 0
-13 -15 0
-14 -15 0
13 14 15 0
-16 -17 0
-16 -18 0
-17 -18 0
16 17 18 0
-19 -20 0
-19 -21 0
-20 -21 0
19 20 21 0
-22 -23 0
-22 -24 0
-23 -24 0
22 23 24 0
-25 -26 0
-25 -27 0
-26 -27 0
25 26 27 0
-28 -29 0
-28 -30 0
-29 -30 0
28 29 30 0
-31 -32 0
-31 -33 0
-32 -33 0
31 32 33 0
-34 -35 0
-34 -36 0
-35 -36 0
34 35 36 0
-37 -38 0
-37 -39 0
-38 -39 0
37 38 39 0
-40 -41 0
-40 -42 0
-41 -42 0
40 41 42 0
-43 -44 0
-43 -45 0
-44 -45 0
43 44 45 0
-46 -47 0
-46 -48 0
-47 -48 0
46 47 48 0
-49 -50 0
-49 -51 0
-50 -51 0
49 50 51 0
-52 -53 0
-52 -54 0
-53 -54 0
52 53 54 0
-55 -56 0
-55 -57 0
-56 -57 0
55 56 57 0
-58 -59 0
-58 -60 0
-59 -60 0
58 59 60 0
-61 -62 0
-61 -63 0
-62 -63 0
61 62 63 0
-64 -65 0
-64 -66 0
-65 -66 0
64 65 66 0
-67 -68 0
-67 -69 0
-68 -69 0
67 68 69 0
-70 -71 0
-70 -72 0
-71 -72 0
70 71 72 0
-73 -74 0
-73 -75 0
-74 -75 0
73 74 75 0
-76 -77 0
-76 -78 0
-77 -78 0
76 77 78 0
-79 -80 0
-79 -81 0
-80 -81 0
79 80 81 0
-82 -83 0
-82 -84 0
-83 -84 0
82 83 84 0
-85 -86 0
-85 -87 0
-86 -87 0
85 86 87 0
-88 -89 0
-88 -90 0
-89 -90 0
88 89 90 0
-91 -92 0
-91 -93 0
-92 -93 0
91 92 93 0
-94 -95 0
-94 -96 0
-95 -96 0
94 95 96 0
-97 -98 0
-97 -99 0
-98 -99 0
97 98 99 0
-100 -101 0
-100 -102 0
-101 -102 0
100 101 102 0
-103 -104 0
-103 -105 0
-104 -105 0
103 104 105 0
-106 -107 0
-106 -108 0
-107 -108 0
106 107 108 0
-109 -110 0
-109 -111 0
-110 -111 0
109 110 111 0
-112 -113 0
-112 -114 0
-113 -114 0
112 113 114 0
-115 -116 0
-115 -117 0
-116 -117 0
115 116 117 0
-118 -119 0
-118 -120 0
-119 -120 0
118 119 120 0
-121 -122 0
-121 -123 0
-122 -123 0
121 122 123 0
-124 -125 0
-124 -126 0
-125 -126 0
124 125 126 0
-127 -128 0
-127 -129 0
-128 -129 0
127 128 129 0
-130 -131 0
-130 -132 0
-131 -132 0
130 131 132 0
-133 -134 0
-133 -135 0
-134 -135 0
133 134 135 0
-136 -137 0
-136 -138 0
-137 -138 0
136 137 138 0
-139 -140 0
-139 -141 0
-140 -141 0
139 140 141 0
-142 -143 0
-142 -144 0
-143 -144 0
142 143 144 0
-145 -146 0
-145 -147 0
-146 -147 0
145 146 147 0
-148 -149 0
-148 -150 0
-149 -150 0
148 149 150 0
-55 -1 0
-56 -2 0
-57 -3 0
-58 -1 0
-59 -2 0
-60 -3 0
-73 -1 0
-74 -2 0
-75 -3 0
-97 -1 0
-98 -2 0
-99 -3 0
-109 -1 0
-110 -2 0
-111 -3 0
-118 -1 0
-119 -2 0
-120 -3 0
-121 -1 0
-122 -2 0
-123 -3 0
-136 -1 0
-137 -2 0
-138 -3 0
-58 -4 0
-59 -5 0
-60 -6 0
-70 -4 0
-71 -5 0
-72 -6 0
-91 -4 0
-92 -5 0
-93 -6 0
-94 -4 0
-95 -5 0
-96 -6 0
-148 -4 0
-149 -5 0
-150 -6 0
-76 -7 0
-77 -8 0
-78 -9 0
-121 -7 0
-122 -8 0
-123 -9 0
-127 -7 0
-128 -8 0
-129 -9 0
-145 -7 0
-146 -8 0
-147 -9 0
-148 -7 0
-149 -8 0
-150 -9 0
-64 -10 0
-65 -11 0
-66 -12 0
-100 -10 0
-101 -11 0
-102 -12 0
-112 -10 0
-113 -11 0
-114 -12 0
-118 -10 0
-119 -11 0
-120 -12 0
-142 -10 0
-143 -11 0
-144 -12 0
-61 -13 0
-62 -14 0
-63 -15 0
-82 -13 0
-83 -14 0
-84 -15 0
-91 -13 0
-92 -14 0
-93 -15 0
-121 -13 0
-122 -14 0
-123 -15 0
-139 -13 0
-140 -14 0
-141 -15 0
-61 -16 0
-62 -17 0
-63 -18 0
-100 -16 0
-101 -17 0
-102 -18 0
-103 -16 0
-104 -17 0
-105 -18 0
-142 -19 0
-143 -20 0
-144 -21 0
-55 -22 0
-56 -23 0
-57 -24 0
-94 -22 0
-95 -23 0
-96 -24 0
-97 -22 0
-98 -23 0
-99 -24 0
-103 -22 0
-104 -23 0
-105 -24 0
-55 -25 0
-56 -26 0
-57 -27 0
-64 -25 0
-65 -26 0
-66 -27 0
-73 -25 0
-74 -26 0
-75 -27 0
-94 -25 0
-95 -26 0
-96 -27 0
-112 -25 0
-113 -26 0
-114 -27 0
-133 -25 0
-134 -26 0
-135 -27 0
-142 -25 0
-143 -26 0
-144 -27 0
-58 -28 0
-59 -29 0
-60 -30 0
-61 -28 0
-62 -29 0
-63 -30 0
-79 -28 0
-80 -29 0
-81 -30 0
-112 -28 0
-113 -29 0
-114 -30 0
-52 -31 0
-53 -32 0
-54 -33 0
-55 -31 0
-56 -32 0
-57 -33 0
-91 -31 0
-92 -32 0
-93 -33 0
-145 -31 0
-146 -32 0
-147 -33 0
-82 -34 0
-83 -35 0
-84 -36 0
-88 -34 0
-89 -35 0
-90 -36 0
-109 -34 0
-110 -35 0
-111 -36 0
-112 -34 0
-113 -35 0
-114 -36 0
-139 -34 0
-140 -35 0
-141 -36 0
-142 -34 0
-143 -35 0
-144 -36 0
-100 -37 0
-101 -38 0
-102 -39 0
-103 -37 0
-104 -38 0
-105 -39 0
-121 -37 0
-122 -38 0
-123 -39 0
-148 -37 0
-149 -38 0
-150 -39 0
-52 -40 0
-53 -41 0
-54 -42 0
-64 -40 0
-65 -41 0
-66 -42 0
-118 -40 0
-119 -41 0
-120 -42 0
-127 -40 0
-128 -41 0
-129 -42 0
-148 -40 0
-149 -41 0
-150 -42 0
-82 -43 0
-83 -44 0
-84 -45 0
-85 -43 0
-86 -44 0
-87 -45 0
-88 -43 0
-89 -44 0
-90 -45 0
-97 -43 0
-98 -44 0
-99 -45 0
-118 -43 0
-119 -44 0
-120 -45 0
-133 -43 0
-134 -44 0
-135 -45 0
-97 -46 0
-98 -47 0
-99 -48 0
-109 -46 0
-110 -47 0
-111 -48 0
-124 -46 0
-125 -47 0
-126 -48 0
-94 -49 0
-95 -50 0
-96 -51 0
-115 -49 0
-116 -50 0
-117 -51 0
-118 -52 0
-119 -53 0
-120 -54 0
-124 -52 0
-125 -53 0
-126 -54 0
-148 -55 0
-149 -56 0
-150 -57 0
-130 -58 0
-131 -59 0
-132 -60 0
-145 -58 0
-146 -59 0
-147 -60 0
-109 -61 0
-110 -62 0
-111 -63 0
-124 -61 0
-125 -62 0
-126 -63 0
-127 -61 0
-128 -62 0
-129 -63 0
-139 -61 0
-140 -62 0
-141 -63 0
-118 -64 0
-119 -65 0
-120 -66 0
-124 -64 0
-125 -65 0
-126 -66 0
-136 -64 0
-137 -65 0
-138 -66 0
-127 -67 0
-128 -68 0
-129 -69 0
-145 -67 0
-146 -68 0
-147 -69 0
-139 -70 0
-140 -71 0
-141 -72 0
-133 -73 0
-134 -74 0
-135 -75 0
-148 -73 0
-149 -74 0
-150 -75 0
-127 -76 0
-128 -77 0
-129 -78 0
-130 -76 0
-131 -77 0
-132 -78 0
-145 -76 0
-146 -77 0
-147 -78 0
-148 -76 0
-149 -77 0
-150 -78 0
-103 -79 0
-104 -80 0
-105 -81 0
-112 -79 0
-113 -80 0
-114 -81 0
-139 -79 0
-140 -80 0
-141 -81 0
-136 -82 0
-137 -83 0
-138 -84 0
-103 -85 0
-104 -86 0
-105 -87 0
-121 -85 0
-122 -86 0
-123 -87 0
-133 -88 0
-134 -89 0
-135 -90 0
-124 -91 0
-125 -92 0
-126 -93 0
-139 -91 0
-140 -92 0
-141 -93 0
-142 -94 0
-143 -95 0
-144 -96 0
-103 -97 0
-104 -98 0
-105 -99 0
-118 -97 0
-119 -98 0
-120 -99 0
-142 -97 0
-143 -98 0
-144 -99 0
-103 -100 0
-104 -101 0
-105 -102 0
-115 -100 0
-116 -101 0
-117 -102 0
-130 -100 0
-131 -101 0
-132 -102 0
-148 -100 0
-149 -101 0
-150 -102 0
